71428.73
68 70 71 69 67 65 63 61 57 55 53 51 49 46 44 43 45 47 48 50 52 54 56 28 29 27 26 17 5 3 1 2 4 16 25 24 23 22 21 20 19 18 0 143 116 114 115 142 141 140 139 138 137 136 135 134 133 132 131 130 119 118 117 108 110 92 89 88 112 113 87 86 85 84 83 82 81 80 78 79 90 91 111 109 94 93 95 96 107 106 97 98 99 72 74 76 77 75 73 100 101 105 103 102 104 120 121 122 123 124 125 126 127 128 129 9 7 6 8 10 11 12 13 39 41 40 38 37 36 35 34 33 32 31 14 15 30 42 58 59 60 62 64 66